p cnf 1547 2920
-53 -50 -47 -44 -7 -4 -1 87 0
-84 -50 -47 -44 -41 -4 -1 88 0
1 44 47 89 0
-84 -81 -47 -44 -41 -38 -1 90 0
44 91 0
44 92 0
44 93 0
44 94 0
44 71 95 0
44 60 96 0
44 60 97 0
44 98 0
44 99 0
41 44 84 100 0
44 101 0
44 102 0
44 71 103 0
44 104 0
-84 -81 -78 -44 -41 -38 -35 105 0
48 106 0
48 64 107 0
48 108 0
48 109 0
48 110 0
68 111 0
84 112 0
64 113 0
64 114 0
68 115 0
84 116 0
84 117 0
84 118 0
68 84 119 0
6 19 120 0
6 25 121 0
64 122 0
19 38 123 0
25 38 124 0
69 125 0
1 25 126 0
1 31 127 0
1 14 128 0
1 14 129 0
1 25 130 0
1 20 131 0
1 20 132 0
1 31 133 0
71 134 0
8 38 135 0
8 38 136 0
64 137 0
64 138 0
71 139 0
59 140 0
80 141 0
25 68 71 142 0
14 57 60 143 0
57 144 0
57 84 145 0
57 146 0
57 84 147 0
19 38 148 0
14 38 149 0
14 38 150 0
14 33 151 0
84 152 0
84 153 0
38 81 84 154 0
60 155 0
60 156 0
64 157 0
64 158 0
64 159 0
84 160 0
80 161 0
84 162 0
80 163 0
80 164 0
25 38 165 0
20 33 166 0
64 167 0
64 80 168 0
68 84 169 0
84 170 0
-84 -81 -78 -75 -38 -35 -32 171 0
-54 -51 -48 -45 -8 -5 -2 172 0
-85 -51 -48 -45 -42 -5 -2 173 0
2 45 48 174 0
-85 -82 -48 -45 -42 -39 -2 175 0
45 176 0
45 177 0
45 178 0
45 179 0
45 72 180 0
45 61 181 0
45 61 182 0
45 183 0
45 184 0
42 45 85 185 0
45 186 0
45 187 0
45 72 188 0
45 189 0
-85 -82 -79 -45 -42 -39 -36 190 0
49 191 0
49 65 192 0
49 193 0
49 194 0
49 195 0
69 196 0
85 197 0
65 198 0
65 199 0
69 200 0
85 201 0
85 202 0
85 203 0
69 85 204 0
7 20 205 0
7 26 206 0
65 207 0
20 39 208 0
26 39 209 0
70 210 0
2 26 211 0
2 32 212 0
2 15 213 0
2 15 214 0
2 26 215 0
2 21 216 0
2 21 217 0
2 32 218 0
72 219 0
9 39 220 0
9 39 221 0
65 222 0
65 223 0
72 224 0
60 225 0
81 226 0
26 69 72 227 0
15 58 61 228 0
58 229 0
58 85 230 0
58 231 0
58 85 232 0
20 39 233 0
15 39 234 0
15 39 235 0
15 34 236 0
85 237 0
85 238 0
39 82 85 239 0
61 240 0
61 241 0
65 242 0
65 243 0
65 244 0
85 245 0
81 246 0
85 247 0
81 248 0
81 249 0
26 39 250 0
21 34 251 0
65 252 0
65 81 253 0
69 85 254 0
85 255 0
-85 -82 -79 -76 -39 -36 -33 256 0
-55 -52 -49 -46 -9 -6 -3 257 0
-86 -52 -49 -46 -43 -6 -3 258 0
3 46 49 259 0
-86 -83 -49 -46 -43 -40 -3 260 0
46 261 0
46 262 0
46 263 0
46 264 0
46 73 265 0
46 62 266 0
46 62 267 0
46 268 0
46 269 0
43 46 86 270 0
46 271 0
46 272 0
46 73 273 0
46 274 0
-86 -83 -80 -46 -43 -40 -37 275 0
50 276 0
50 66 277 0
50 278 0
50 279 0
50 280 0
70 281 0
86 282 0
66 283 0
66 284 0
70 285 0
86 286 0
86 287 0
86 288 0
70 86 289 0
8 21 290 0
8 27 291 0
66 292 0
21 40 293 0
27 40 294 0
71 295 0
3 27 296 0
3 33 297 0
3 16 298 0
3 16 299 0
3 27 300 0
3 22 301 0
3 22 302 0
3 33 303 0
73 304 0
10 40 305 0
10 40 306 0
66 307 0
66 308 0
73 309 0
61 310 0
82 311 0
27 70 73 312 0
16 59 62 313 0
59 314 0
59 86 315 0
59 316 0
59 86 317 0
21 40 318 0
16 40 319 0
16 40 320 0
16 35 321 0
86 322 0
86 323 0
40 83 86 324 0
62 325 0
62 326 0
66 327 0
66 328 0
66 329 0
86 330 0
82 331 0
86 332 0
82 333 0
82 334 0
27 40 335 0
22 35 336 0
66 337 0
66 82 338 0
70 86 339 0
86 340 0
-86 -83 -80 -77 -40 -37 -34 341 0
-56 -53 -50 -47 -10 -7 -4 342 0
4 47 50 343 0
47 344 0
47 345 0
47 346 0
47 347 0
47 74 348 0
47 63 349 0
47 63 350 0
47 351 0
47 352 0
47 353 0
47 354 0
47 74 355 0
47 356 0
51 357 0
51 67 358 0
51 359 0
51 360 0
51 361 0
71 362 0
67 363 0
67 364 0
71 365 0
9 22 366 0
9 28 367 0
67 368 0
22 41 369 0
28 41 370 0
72 371 0
4 28 372 0
4 34 373 0
4 17 374 0
4 17 375 0
4 28 376 0
4 23 377 0
4 23 378 0
4 34 379 0
74 380 0
11 41 381 0
11 41 382 0
67 383 0
67 384 0
74 385 0
62 386 0
83 387 0
28 71 74 388 0
17 60 63 389 0
60 390 0
60 391 0
22 41 392 0
17 41 393 0
17 41 394 0
17 36 395 0
63 396 0
63 397 0
67 398 0
67 399 0
67 400 0
83 401 0
83 402 0
83 403 0
28 41 404 0
23 36 405 0
67 406 0
67 83 407 0
-57 -54 -51 -48 -11 -8 -5 408 0
5 48 51 409 0
48 410 0
48 411 0
48 412 0
48 75 413 0
48 64 414 0
48 415 0
48 416 0
48 75 417 0
52 418 0
52 68 419 0
52 420 0
52 421 0
52 422 0
72 423 0
68 424 0
68 425 0
72 426 0
10 23 427 0
10 29 428 0
68 429 0
23 42 430 0
29 42 431 0
73 432 0
5 29 433 0
5 35 434 0
5 18 435 0
5 18 436 0
5 29 437 0
5 24 438 0
5 24 439 0
5 35 440 0
75 441 0
12 42 442 0
12 42 443 0
68 444 0
75 445 0
63 446 0
29 72 75 447 0
18 61 64 448 0
61 449 0
61 450 0
23 42 451 0
18 42 452 0
18 42 453 0
18 37 454 0
68 455 0
68 456 0
29 42 457 0
24 37 458 0
68 459 0
-58 -55 -52 -49 -12 -9 -6 460 0
6 49 52 461 0
49 462 0
49 463 0
49 464 0
49 76 465 0
49 65 466 0
49 467 0
49 468 0
49 76 469 0
53 470 0
53 69 471 0
53 472 0
53 473 0
53 474 0
73 475 0
69 476 0
69 477 0
73 478 0
11 24 479 0
11 30 480 0
69 481 0
24 43 482 0
30 43 483 0
74 484 0
6 30 485 0
6 36 486 0
6 19 487 0
6 30 488 0
6 25 489 0
6 36 490 0
76 491 0
13 43 492 0
13 43 493 0
69 494 0
76 495 0
30 73 76 496 0
19 62 65 497 0
62 498 0
62 499 0
24 43 500 0
19 43 501 0
19 43 502 0
69 503 0
69 504 0
30 43 505 0
-59 -56 -53 -50 -13 -10 -7 506 0
7 50 53 507 0
50 508 0
50 509 0
50 510 0
50 77 511 0
50 66 512 0
50 513 0
50 514 0
50 77 515 0
54 516 0
54 70 517 0
54 518 0
54 519 0
54 520 0
74 521 0
70 522 0
70 523 0
74 524 0
12 25 525 0
12 31 526 0
70 527 0
75 528 0
7 31 529 0
7 37 530 0
7 20 531 0
7 31 532 0
7 26 533 0
7 37 534 0
77 535 0
70 536 0
77 537 0
31 74 77 538 0
20 63 66 539 0
63 540 0
63 541 0
70 542 0
70 543 0
-60 -57 -54 -51 -14 -11 -8 544 0
8 51 54 545 0
51 546 0
51 547 0
51 548 0
51 78 549 0
51 67 550 0
51 551 0
51 552 0
51 78 553 0
55 554 0
55 71 555 0
55 556 0
55 557 0
55 558 0
75 559 0
71 560 0
75 561 0
13 26 562 0
13 32 563 0
71 564 0
76 565 0
8 32 566 0
8 21 567 0
8 32 568 0
8 27 569 0
78 570 0
71 571 0
78 572 0
32 75 78 573 0
21 64 67 574 0
71 575 0
-61 -58 -55 -52 -15 -12 -9 576 0
9 52 55 577 0
52 578 0
52 579 0
52 580 0
52 79 581 0
52 68 582 0
52 583 0
52 584 0
52 79 585 0
56 586 0
56 72 587 0
56 588 0
56 589 0
56 590 0
76 591 0
72 592 0
76 593 0
14 27 594 0
14 33 595 0
72 596 0
77 597 0
9 33 598 0
9 22 599 0
9 33 600 0
9 28 601 0
79 602 0
72 603 0
79 604 0
33 76 79 605 0
22 65 68 606 0
72 607 0
-62 -59 -56 -53 -16 -13 -10 608 0
10 53 56 609 0
53 610 0
53 611 0
53 612 0
53 80 613 0
53 69 614 0
53 615 0
53 616 0
53 80 617 0
57 618 0
57 73 619 0
57 620 0
57 621 0
57 622 0
77 623 0
73 624 0
77 625 0
15 28 626 0
15 34 627 0
73 628 0
78 629 0
10 34 630 0
10 23 631 0
10 34 632 0
10 29 633 0
80 634 0
73 635 0
80 636 0
34 77 80 637 0
23 66 69 638 0
73 639 0
-63 -60 -57 -54 -17 -14 -11 640 0
11 54 57 641 0
54 642 0
54 643 0
54 644 0
54 81 645 0
54 70 646 0
54 647 0
54 648 0
54 81 649 0
58 650 0
58 74 651 0
58 652 0
58 653 0
58 654 0
78 655 0
74 656 0
78 657 0
16 29 658 0
16 35 659 0
74 660 0
79 661 0
11 35 662 0
11 24 663 0
11 35 664 0
11 30 665 0
81 666 0
74 667 0
81 668 0
35 78 81 669 0
24 67 70 670 0
74 671 0
-64 -61 -58 -55 -18 -15 -12 672 0
12 55 58 673 0
55 674 0
55 675 0
55 676 0
55 82 677 0
55 71 678 0
55 679 0
55 680 0
55 82 681 0
59 682 0
59 75 683 0
59 684 0
59 685 0
79 686 0
75 687 0
79 688 0
17 30 689 0
17 36 690 0
75 691 0
12 36 692 0
12 25 693 0
12 36 694 0
12 31 695 0
82 696 0
75 697 0
82 698 0
36 79 82 699 0
75 700 0
-65 -62 -59 -56 -19 -16 -13 701 0
13 56 59 702 0
56 703 0
56 704 0
56 705 0
56 83 706 0
56 72 707 0
56 708 0
56 709 0
56 83 710 0
60 711 0
60 76 712 0
60 713 0
60 714 0
80 715 0
76 716 0
80 717 0
18 31 718 0
18 37 719 0
76 720 0
13 37 721 0
13 26 722 0
13 37 723 0
13 32 724 0
83 725 0
76 726 0
83 727 0
37 80 83 728 0
76 729 0
-66 -63 -60 -57 -20 -17 -14 730 0
57 731 0
57 732 0
57 73 733 0
57 734 0
61 735 0
61 77 736 0
61 737 0
61 738 0
81 739 0
77 740 0
81 741 0
19 32 742 0
77 743 0
14 27 744 0
77 745 0
77 746 0
-67 -64 -61 -58 -21 -18 -15 747 0
58 748 0
58 749 0
58 74 750 0
58 751 0
62 752 0
62 78 753 0
62 754 0
62 755 0
82 756 0
78 757 0
82 758 0
20 33 759 0
78 760 0
15 28 761 0
78 762 0
78 763 0
-68 -65 -62 -59 -22 -19 -16 764 0
59 765 0
59 766 0
59 75 767 0
59 768 0
63 769 0
63 79 770 0
63 771 0
63 772 0
83 773 0
79 774 0
83 775 0
21 34 776 0
79 777 0
16 29 778 0
79 779 0
79 780 0
-69 -66 -63 -60 -23 -20 -17 781 0
60 782 0
60 76 783 0
64 80 784 0
22 35 785 0
80 786 0
17 30 787 0
-70 -67 -64 -61 -24 -21 -18 788 0
61 789 0
61 77 790 0
65 81 791 0
23 36 792 0
81 793 0
18 31 794 0
-71 -68 -65 -62 -25 -22 -19 795 0
62 796 0
62 78 797 0
66 82 798 0
24 37 799 0
82 800 0
19 32 801 0
-72 -69 -66 -63 -26 -23 -20 802 0
63 803 0
63 79 804 0
67 83 805 0
83 806 0
-73 -70 -67 -64 -27 -24 -21 807 0
-74 -71 -68 -65 -28 -25 -22 808 0
-75 -72 -69 -66 -29 -26 -23 809 0
-76 -73 -70 -67 -30 -27 -24 810 0
-77 -74 -71 -68 -31 -28 -25 811 0
-78 -75 -72 -69 -32 -29 -26 812 0
-79 -76 -73 -70 -33 -30 -27 813 0
-80 -77 -74 -71 -34 -31 -28 814 0
-81 -78 -75 -72 -35 -32 -29 815 0
-82 -79 -76 -73 -36 -33 -30 816 0
-83 -80 -77 -74 -37 -34 -31 817 0
-87 818 0
-88 819 0
-818 819 0
-88 -818 0
-89 820 0
-819 820 0
-89 -819 0
-90 821 0
-820 821 0
-90 -820 0
-91 822 0
-821 822 0
-91 -821 0
-92 823 0
-822 823 0
-92 -822 0
-93 824 0
-823 824 0
-93 -823 0
-94 825 0
-824 825 0
-94 -824 0
-95 826 0
-825 826 0
-95 -825 0
-96 827 0
-826 827 0
-96 -826 0
-97 828 0
-827 828 0
-97 -827 0
-98 829 0
-828 829 0
-98 -828 0
-99 830 0
-829 830 0
-99 -829 0
-100 831 0
-830 831 0
-100 -830 0
-101 832 0
-831 832 0
-101 -831 0
-102 833 0
-832 833 0
-102 -832 0
-103 834 0
-833 834 0
-103 -833 0
-104 835 0
-834 835 0
-104 -834 0
-105 836 0
-835 836 0
-105 -835 0
-106 837 0
-836 837 0
-106 -836 0
-107 838 0
-837 838 0
-107 -837 0
-108 839 0
-838 839 0
-108 -838 0
-109 840 0
-839 840 0
-109 -839 0
-110 841 0
-840 841 0
-110 -840 0
-111 842 0
-841 842 0
-111 -841 0
-112 843 0
-842 843 0
-112 -842 0
-113 844 0
-843 844 0
-113 -843 0
-114 845 0
-844 845 0
-114 -844 0
-115 846 0
-845 846 0
-115 -845 0
-116 847 0
-846 847 0
-116 -846 0
-117 848 0
-847 848 0
-117 -847 0
-118 849 0
-848 849 0
-118 -848 0
-119 850 0
-849 850 0
-119 -849 0
-120 851 0
-850 851 0
-120 -850 0
-121 852 0
-851 852 0
-121 -851 0
-122 853 0
-852 853 0
-122 -852 0
-123 854 0
-853 854 0
-123 -853 0
-124 855 0
-854 855 0
-124 -854 0
-125 856 0
-855 856 0
-125 -855 0
-126 857 0
-856 857 0
-126 -856 0
-127 858 0
-857 858 0
-127 -857 0
-128 859 0
-858 859 0
-128 -858 0
-129 860 0
-859 860 0
-129 -859 0
-130 861 0
-860 861 0
-130 -860 0
-131 862 0
-861 862 0
-131 -861 0
-132 863 0
-862 863 0
-132 -862 0
-133 864 0
-863 864 0
-133 -863 0
-134 865 0
-864 865 0
-134 -864 0
-135 866 0
-865 866 0
-135 -865 0
-136 867 0
-866 867 0
-136 -866 0
-137 868 0
-867 868 0
-137 -867 0
-138 869 0
-868 869 0
-138 -868 0
-139 870 0
-869 870 0
-139 -869 0
-140 871 0
-870 871 0
-140 -870 0
-141 872 0
-871 872 0
-141 -871 0
-142 873 0
-872 873 0
-142 -872 0
-143 874 0
-873 874 0
-143 -873 0
-144 875 0
-874 875 0
-144 -874 0
-145 876 0
-875 876 0
-145 -875 0
-146 877 0
-876 877 0
-146 -876 0
-147 878 0
-877 878 0
-147 -877 0
-148 879 0
-878 879 0
-148 -878 0
-149 880 0
-879 880 0
-149 -879 0
-150 881 0
-880 881 0
-150 -880 0
-151 882 0
-881 882 0
-151 -881 0
-152 883 0
-882 883 0
-152 -882 0
-153 884 0
-883 884 0
-153 -883 0
-154 885 0
-884 885 0
-154 -884 0
-155 886 0
-885 886 0
-155 -885 0
-156 887 0
-886 887 0
-156 -886 0
-157 888 0
-887 888 0
-157 -887 0
-158 889 0
-888 889 0
-158 -888 0
-159 890 0
-889 890 0
-159 -889 0
-160 891 0
-890 891 0
-160 -890 0
-161 892 0
-891 892 0
-161 -891 0
-162 893 0
-892 893 0
-162 -892 0
-163 894 0
-893 894 0
-163 -893 0
-164 895 0
-894 895 0
-164 -894 0
-165 896 0
-895 896 0
-165 -895 0
-166 897 0
-896 897 0
-166 -896 0
-167 898 0
-897 898 0
-167 -897 0
-168 899 0
-898 899 0
-168 -898 0
-169 900 0
-899 900 0
-169 -899 0
-170 901 0
-900 901 0
-170 -900 0
-171 902 0
-901 902 0
-171 -901 0
-172 903 0
-902 903 0
-172 -902 0
-173 904 0
-903 904 0
-173 -903 0
-174 905 0
-904 905 0
-174 -904 0
-175 906 0
-905 906 0
-175 -905 0
-176 907 0
-906 907 0
-176 -906 0
-177 908 0
-907 908 0
-177 -907 0
-178 909 0
-908 909 0
-178 -908 0
-179 910 0
-909 910 0
-179 -909 0
-180 911 0
-910 911 0
-180 -910 0
-181 912 0
-911 912 0
-181 -911 0
-182 913 0
-912 913 0
-182 -912 0
-183 914 0
-913 914 0
-183 -913 0
-184 915 0
-914 915 0
-184 -914 0
-185 916 0
-915 916 0
-185 -915 0
-186 917 0
-916 917 0
-186 -916 0
-187 918 0
-917 918 0
-187 -917 0
-188 919 0
-918 919 0
-188 -918 0
-189 920 0
-919 920 0
-189 -919 0
-190 921 0
-920 921 0
-190 -920 0
-191 922 0
-921 922 0
-191 -921 0
-192 923 0
-922 923 0
-192 -922 0
-193 924 0
-923 924 0
-193 -923 0
-194 925 0
-924 925 0
-194 -924 0
-195 926 0
-925 926 0
-195 -925 0
-196 927 0
-926 927 0
-196 -926 0
-197 928 0
-927 928 0
-197 -927 0
-198 929 0
-928 929 0
-198 -928 0
-199 930 0
-929 930 0
-199 -929 0
-200 931 0
-930 931 0
-200 -930 0
-201 932 0
-931 932 0
-201 -931 0
-202 933 0
-932 933 0
-202 -932 0
-203 934 0
-933 934 0
-203 -933 0
-204 935 0
-934 935 0
-204 -934 0
-205 936 0
-935 936 0
-205 -935 0
-206 937 0
-936 937 0
-206 -936 0
-207 938 0
-937 938 0
-207 -937 0
-208 939 0
-938 939 0
-208 -938 0
-209 940 0
-939 940 0
-209 -939 0
-210 941 0
-940 941 0
-210 -940 0
-211 942 0
-941 942 0
-211 -941 0
-212 943 0
-942 943 0
-212 -942 0
-213 944 0
-943 944 0
-213 -943 0
-214 945 0
-944 945 0
-214 -944 0
-215 946 0
-945 946 0
-215 -945 0
-216 947 0
-946 947 0
-216 -946 0
-217 948 0
-947 948 0
-217 -947 0
-218 949 0
-948 949 0
-218 -948 0
-219 950 0
-949 950 0
-219 -949 0
-220 951 0
-950 951 0
-220 -950 0
-221 952 0
-951 952 0
-221 -951 0
-222 953 0
-952 953 0
-222 -952 0
-223 954 0
-953 954 0
-223 -953 0
-224 955 0
-954 955 0
-224 -954 0
-225 956 0
-955 956 0
-225 -955 0
-226 957 0
-956 957 0
-226 -956 0
-227 958 0
-957 958 0
-227 -957 0
-228 959 0
-958 959 0
-228 -958 0
-229 960 0
-959 960 0
-229 -959 0
-230 961 0
-960 961 0
-230 -960 0
-231 962 0
-961 962 0
-231 -961 0
-232 963 0
-962 963 0
-232 -962 0
-233 964 0
-963 964 0
-233 -963 0
-234 965 0
-964 965 0
-234 -964 0
-235 966 0
-965 966 0
-235 -965 0
-236 967 0
-966 967 0
-236 -966 0
-237 968 0
-967 968 0
-237 -967 0
-238 969 0
-968 969 0
-238 -968 0
-239 970 0
-969 970 0
-239 -969 0
-240 971 0
-970 971 0
-240 -970 0
-241 972 0
-971 972 0
-241 -971 0
-242 973 0
-972 973 0
-242 -972 0
-243 974 0
-973 974 0
-243 -973 0
-244 975 0
-974 975 0
-244 -974 0
-245 976 0
-975 976 0
-245 -975 0
-246 977 0
-976 977 0
-246 -976 0
-247 978 0
-977 978 0
-247 -977 0
-248 979 0
-978 979 0
-248 -978 0
-249 980 0
-979 980 0
-249 -979 0
-250 981 0
-980 981 0
-250 -980 0
-251 982 0
-981 982 0
-251 -981 0
-252 983 0
-982 983 0
-252 -982 0
-253 984 0
-983 984 0
-253 -983 0
-254 985 0
-984 985 0
-254 -984 0
-255 986 0
-985 986 0
-255 -985 0
-256 987 0
-986 987 0
-256 -986 0
-257 988 0
-987 988 0
-257 -987 0
-258 989 0
-988 989 0
-258 -988 0
-259 990 0
-989 990 0
-259 -989 0
-260 991 0
-990 991 0
-260 -990 0
-261 992 0
-991 992 0
-261 -991 0
-262 993 0
-992 993 0
-262 -992 0
-263 994 0
-993 994 0
-263 -993 0
-264 995 0
-994 995 0
-264 -994 0
-265 996 0
-995 996 0
-265 -995 0
-266 997 0
-996 997 0
-266 -996 0
-267 998 0
-997 998 0
-267 -997 0
-268 999 0
-998 999 0
-268 -998 0
-269 1000 0
-999 1000 0
-269 -999 0
-270 1001 0
-1000 1001 0
-270 -1000 0
-271 1002 0
-1001 1002 0
-271 -1001 0
-272 1003 0
-1002 1003 0
-272 -1002 0
-273 1004 0
-1003 1004 0
-273 -1003 0
-274 1005 0
-1004 1005 0
-274 -1004 0
-275 1006 0
-1005 1006 0
-275 -1005 0
-276 1007 0
-1006 1007 0
-276 -1006 0
-277 1008 0
-1007 1008 0
-277 -1007 0
-278 1009 0
-1008 1009 0
-278 -1008 0
-279 1010 0
-1009 1010 0
-279 -1009 0
-280 1011 0
-1010 1011 0
-280 -1010 0
-281 1012 0
-1011 1012 0
-281 -1011 0
-282 1013 0
-1012 1013 0
-282 -1012 0
-283 1014 0
-1013 1014 0
-283 -1013 0
-284 1015 0
-1014 1015 0
-284 -1014 0
-285 1016 0
-1015 1016 0
-285 -1015 0
-286 1017 0
-1016 1017 0
-286 -1016 0
-287 1018 0
-1017 1018 0
-287 -1017 0
-288 1019 0
-1018 1019 0
-288 -1018 0
-289 1020 0
-1019 1020 0
-289 -1019 0
-290 1021 0
-1020 1021 0
-290 -1020 0
-291 1022 0
-1021 1022 0
-291 -1021 0
-292 1023 0
-1022 1023 0
-292 -1022 0
-293 1024 0
-1023 1024 0
-293 -1023 0
-294 1025 0
-1024 1025 0
-294 -1024 0
-295 1026 0
-1025 1026 0
-295 -1025 0
-296 1027 0
-1026 1027 0
-296 -1026 0
-297 1028 0
-1027 1028 0
-297 -1027 0
-298 1029 0
-1028 1029 0
-298 -1028 0
-299 1030 0
-1029 1030 0
-299 -1029 0
-300 1031 0
-1030 1031 0
-300 -1030 0
-301 1032 0
-1031 1032 0
-301 -1031 0
-302 1033 0
-1032 1033 0
-302 -1032 0
-303 1034 0
-1033 1034 0
-303 -1033 0
-304 1035 0
-1034 1035 0
-304 -1034 0
-305 1036 0
-1035 1036 0
-305 -1035 0
-306 1037 0
-1036 1037 0
-306 -1036 0
-307 1038 0
-1037 1038 0
-307 -1037 0
-308 1039 0
-1038 1039 0
-308 -1038 0
-309 1040 0
-1039 1040 0
-309 -1039 0
-310 1041 0
-1040 1041 0
-310 -1040 0
-311 1042 0
-1041 1042 0
-311 -1041 0
-312 1043 0
-1042 1043 0
-312 -1042 0
-313 1044 0
-1043 1044 0
-313 -1043 0
-314 1045 0
-1044 1045 0
-314 -1044 0
-315 1046 0
-1045 1046 0
-315 -1045 0
-316 1047 0
-1046 1047 0
-316 -1046 0
-317 1048 0
-1047 1048 0
-317 -1047 0
-318 1049 0
-1048 1049 0
-318 -1048 0
-319 1050 0
-1049 1050 0
-319 -1049 0
-320 1051 0
-1050 1051 0
-320 -1050 0
-321 1052 0
-1051 1052 0
-321 -1051 0
-322 1053 0
-1052 1053 0
-322 -1052 0
-323 1054 0
-1053 1054 0
-323 -1053 0
-324 1055 0
-1054 1055 0
-324 -1054 0
-325 1056 0
-1055 1056 0
-325 -1055 0
-326 1057 0
-1056 1057 0
-326 -1056 0
-327 1058 0
-1057 1058 0
-327 -1057 0
-328 1059 0
-1058 1059 0
-328 -1058 0
-329 1060 0
-1059 1060 0
-329 -1059 0
-330 1061 0
-1060 1061 0
-330 -1060 0
-331 1062 0
-1061 1062 0
-331 -1061 0
-332 1063 0
-1062 1063 0
-332 -1062 0
-333 1064 0
-1063 1064 0
-333 -1063 0
-334 1065 0
-1064 1065 0
-334 -1064 0
-335 1066 0
-1065 1066 0
-335 -1065 0
-336 1067 0
-1066 1067 0
-336 -1066 0
-337 1068 0
-1067 1068 0
-337 -1067 0
-338 1069 0
-1068 1069 0
-338 -1068 0
-339 1070 0
-1069 1070 0
-339 -1069 0
-340 1071 0
-1070 1071 0
-340 -1070 0
-341 1072 0
-1071 1072 0
-341 -1071 0
-342 1073 0
-1072 1073 0
-342 -1072 0
-343 1074 0
-1073 1074 0
-343 -1073 0
-344 1075 0
-1074 1075 0
-344 -1074 0
-345 1076 0
-1075 1076 0
-345 -1075 0
-346 1077 0
-1076 1077 0
-346 -1076 0
-347 1078 0
-1077 1078 0
-347 -1077 0
-348 1079 0
-1078 1079 0
-348 -1078 0
-349 1080 0
-1079 1080 0
-349 -1079 0
-350 1081 0
-1080 1081 0
-350 -1080 0
-351 1082 0
-1081 1082 0
-351 -1081 0
-352 1083 0
-1082 1083 0
-352 -1082 0
-353 1084 0
-1083 1084 0
-353 -1083 0
-354 1085 0
-1084 1085 0
-354 -1084 0
-355 1086 0
-1085 1086 0
-355 -1085 0
-356 1087 0
-1086 1087 0
-356 -1086 0
-357 1088 0
-1087 1088 0
-357 -1087 0
-358 1089 0
-1088 1089 0
-358 -1088 0
-359 1090 0
-1089 1090 0
-359 -1089 0
-360 1091 0
-1090 1091 0
-360 -1090 0
-361 1092 0
-1091 1092 0
-361 -1091 0
-362 1093 0
-1092 1093 0
-362 -1092 0
-363 1094 0
-1093 1094 0
-363 -1093 0
-364 1095 0
-1094 1095 0
-364 -1094 0
-365 1096 0
-1095 1096 0
-365 -1095 0
-366 1097 0
-1096 1097 0
-366 -1096 0
-367 1098 0
-1097 1098 0
-367 -1097 0
-368 1099 0
-1098 1099 0
-368 -1098 0
-369 1100 0
-1099 1100 0
-369 -1099 0
-370 1101 0
-1100 1101 0
-370 -1100 0
-371 1102 0
-1101 1102 0
-371 -1101 0
-372 1103 0
-1102 1103 0
-372 -1102 0
-373 1104 0
-1103 1104 0
-373 -1103 0
-374 1105 0
-1104 1105 0
-374 -1104 0
-375 1106 0
-1105 1106 0
-375 -1105 0
-376 1107 0
-1106 1107 0
-376 -1106 0
-377 1108 0
-1107 1108 0
-377 -1107 0
-378 1109 0
-1108 1109 0
-378 -1108 0
-379 1110 0
-1109 1110 0
-379 -1109 0
-380 1111 0
-1110 1111 0
-380 -1110 0
-381 1112 0
-1111 1112 0
-381 -1111 0
-382 1113 0
-1112 1113 0
-382 -1112 0
-383 1114 0
-1113 1114 0
-383 -1113 0
-384 1115 0
-1114 1115 0
-384 -1114 0
-385 1116 0
-1115 1116 0
-385 -1115 0
-386 1117 0
-1116 1117 0
-386 -1116 0
-387 1118 0
-1117 1118 0
-387 -1117 0
-388 1119 0
-1118 1119 0
-388 -1118 0
-389 1120 0
-1119 1120 0
-389 -1119 0
-390 1121 0
-1120 1121 0
-390 -1120 0
-391 1122 0
-1121 1122 0
-391 -1121 0
-392 1123 0
-1122 1123 0
-392 -1122 0
-393 1124 0
-1123 1124 0
-393 -1123 0
-394 1125 0
-1124 1125 0
-394 -1124 0
-395 1126 0
-1125 1126 0
-395 -1125 0
-396 1127 0
-1126 1127 0
-396 -1126 0
-397 1128 0
-1127 1128 0
-397 -1127 0
-398 1129 0
-1128 1129 0
-398 -1128 0
-399 1130 0
-1129 1130 0
-399 -1129 0
-400 1131 0
-1130 1131 0
-400 -1130 0
-401 1132 0
-1131 1132 0
-401 -1131 0
-402 1133 0
-1132 1133 0
-402 -1132 0
-403 1134 0
-1133 1134 0
-403 -1133 0
-404 1135 0
-1134 1135 0
-404 -1134 0
-405 1136 0
-1135 1136 0
-405 -1135 0
-406 1137 0
-1136 1137 0
-406 -1136 0
-407 1138 0
-1137 1138 0
-407 -1137 0
-408 1139 0
-1138 1139 0
-408 -1138 0
-409 1140 0
-1139 1140 0
-409 -1139 0
-410 1141 0
-1140 1141 0
-410 -1140 0
-411 1142 0
-1141 1142 0
-411 -1141 0
-412 1143 0
-1142 1143 0
-412 -1142 0
-413 1144 0
-1143 1144 0
-413 -1143 0
-414 1145 0
-1144 1145 0
-414 -1144 0
-415 1146 0
-1145 1146 0
-415 -1145 0
-416 1147 0
-1146 1147 0
-416 -1146 0
-417 1148 0
-1147 1148 0
-417 -1147 0
-418 1149 0
-1148 1149 0
-418 -1148 0
-419 1150 0
-1149 1150 0
-419 -1149 0
-420 1151 0
-1150 1151 0
-420 -1150 0
-421 1152 0
-1151 1152 0
-421 -1151 0
-422 1153 0
-1152 1153 0
-422 -1152 0
-423 1154 0
-1153 1154 0
-423 -1153 0
-424 1155 0
-1154 1155 0
-424 -1154 0
-425 1156 0
-1155 1156 0
-425 -1155 0
-426 1157 0
-1156 1157 0
-426 -1156 0
-427 1158 0
-1157 1158 0
-427 -1157 0
-428 1159 0
-1158 1159 0
-428 -1158 0
-429 1160 0
-1159 1160 0
-429 -1159 0
-430 1161 0
-1160 1161 0
-430 -1160 0
-431 1162 0
-1161 1162 0
-431 -1161 0
-432 1163 0
-1162 1163 0
-432 -1162 0
-433 1164 0
-1163 1164 0
-433 -1163 0
-434 1165 0
-1164 1165 0
-434 -1164 0
-435 1166 0
-1165 1166 0
-435 -1165 0
-436 1167 0
-1166 1167 0
-436 -1166 0
-437 1168 0
-1167 1168 0
-437 -1167 0
-438 1169 0
-1168 1169 0
-438 -1168 0
-439 1170 0
-1169 1170 0
-439 -1169 0
-440 1171 0
-1170 1171 0
-440 -1170 0
-441 1172 0
-1171 1172 0
-441 -1171 0
-442 1173 0
-1172 1173 0
-442 -1172 0
-443 1174 0
-1173 1174 0
-443 -1173 0
-444 1175 0
-1174 1175 0
-444 -1174 0
-445 1176 0
-1175 1176 0
-445 -1175 0
-446 1177 0
-1176 1177 0
-446 -1176 0
-447 1178 0
-1177 1178 0
-447 -1177 0
-448 1179 0
-1178 1179 0
-448 -1178 0
-449 1180 0
-1179 1180 0
-449 -1179 0
-450 1181 0
-1180 1181 0
-450 -1180 0
-451 1182 0
-1181 1182 0
-451 -1181 0
-452 1183 0
-1182 1183 0
-452 -1182 0
-453 1184 0
-1183 1184 0
-453 -1183 0
-454 1185 0
-1184 1185 0
-454 -1184 0
-455 1186 0
-1185 1186 0
-455 -1185 0
-456 1187 0
-1186 1187 0
-456 -1186 0
-457 1188 0
-1187 1188 0
-457 -1187 0
-458 1189 0
-1188 1189 0
-458 -1188 0
-459 1190 0
-1189 1190 0
-459 -1189 0
-460 1191 0
-1190 1191 0
-460 -1190 0
-461 1192 0
-1191 1192 0
-461 -1191 0
-462 1193 0
-1192 1193 0
-462 -1192 0
-463 1194 0
-1193 1194 0
-463 -1193 0
-464 1195 0
-1194 1195 0
-464 -1194 0
-465 1196 0
-1195 1196 0
-465 -1195 0
-466 1197 0
-1196 1197 0
-466 -1196 0
-467 1198 0
-1197 1198 0
-467 -1197 0
-468 1199 0
-1198 1199 0
-468 -1198 0
-469 1200 0
-1199 1200 0
-469 -1199 0
-470 1201 0
-1200 1201 0
-470 -1200 0
-471 1202 0
-1201 1202 0
-471 -1201 0
-472 1203 0
-1202 1203 0
-472 -1202 0
-473 1204 0
-1203 1204 0
-473 -1203 0
-474 1205 0
-1204 1205 0
-474 -1204 0
-475 1206 0
-1205 1206 0
-475 -1205 0
-476 1207 0
-1206 1207 0
-476 -1206 0
-477 1208 0
-1207 1208 0
-477 -1207 0
-478 1209 0
-1208 1209 0
-478 -1208 0
-479 1210 0
-1209 1210 0
-479 -1209 0
-480 1211 0
-1210 1211 0
-480 -1210 0
-481 1212 0
-1211 1212 0
-481 -1211 0
-482 1213 0
-1212 1213 0
-482 -1212 0
-483 1214 0
-1213 1214 0
-483 -1213 0
-484 1215 0
-1214 1215 0
-484 -1214 0
-485 1216 0
-1215 1216 0
-485 -1215 0
-486 1217 0
-1216 1217 0
-486 -1216 0
-487 1218 0
-1217 1218 0
-487 -1217 0
-488 1219 0
-1218 1219 0
-488 -1218 0
-489 1220 0
-1219 1220 0
-489 -1219 0
-490 1221 0
-1220 1221 0
-490 -1220 0
-491 1222 0
-1221 1222 0
-491 -1221 0
-492 1223 0
-1222 1223 0
-492 -1222 0
-493 1224 0
-1223 1224 0
-493 -1223 0
-494 1225 0
-1224 1225 0
-494 -1224 0
-495 1226 0
-1225 1226 0
-495 -1225 0
-496 1227 0
-1226 1227 0
-496 -1226 0
-497 1228 0
-1227 1228 0
-497 -1227 0
-498 1229 0
-1228 1229 0
-498 -1228 0
-499 1230 0
-1229 1230 0
-499 -1229 0
-500 1231 0
-1230 1231 0
-500 -1230 0
-501 1232 0
-1231 1232 0
-501 -1231 0
-502 1233 0
-1232 1233 0
-502 -1232 0
-503 1234 0
-1233 1234 0
-503 -1233 0
-504 1235 0
-1234 1235 0
-504 -1234 0
-505 1236 0
-1235 1236 0
-505 -1235 0
-506 1237 0
-1236 1237 0
-506 -1236 0
-507 1238 0
-1237 1238 0
-507 -1237 0
-508 1239 0
-1238 1239 0
-508 -1238 0
-509 1240 0
-1239 1240 0
-509 -1239 0
-510 1241 0
-1240 1241 0
-510 -1240 0
-511 1242 0
-1241 1242 0
-511 -1241 0
-512 1243 0
-1242 1243 0
-512 -1242 0
-513 1244 0
-1243 1244 0
-513 -1243 0
-514 1245 0
-1244 1245 0
-514 -1244 0
-515 1246 0
-1245 1246 0
-515 -1245 0
-516 1247 0
-1246 1247 0
-516 -1246 0
-517 1248 0
-1247 1248 0
-517 -1247 0
-518 1249 0
-1248 1249 0
-518 -1248 0
-519 1250 0
-1249 1250 0
-519 -1249 0
-520 1251 0
-1250 1251 0
-520 -1250 0
-521 1252 0
-1251 1252 0
-521 -1251 0
-522 1253 0
-1252 1253 0
-522 -1252 0
-523 1254 0
-1253 1254 0
-523 -1253 0
-524 1255 0
-1254 1255 0
-524 -1254 0
-525 1256 0
-1255 1256 0
-525 -1255 0
-526 1257 0
-1256 1257 0
-526 -1256 0
-527 1258 0
-1257 1258 0
-527 -1257 0
-528 1259 0
-1258 1259 0
-528 -1258 0
-529 1260 0
-1259 1260 0
-529 -1259 0
-530 1261 0
-1260 1261 0
-530 -1260 0
-531 1262 0
-1261 1262 0
-531 -1261 0
-532 1263 0
-1262 1263 0
-532 -1262 0
-533 1264 0
-1263 1264 0
-533 -1263 0
-534 1265 0
-1264 1265 0
-534 -1264 0
-535 1266 0
-1265 1266 0
-535 -1265 0
-536 1267 0
-1266 1267 0
-536 -1266 0
-537 1268 0
-1267 1268 0
-537 -1267 0
-538 1269 0
-1268 1269 0
-538 -1268 0
-539 1270 0
-1269 1270 0
-539 -1269 0
-540 1271 0
-1270 1271 0
-540 -1270 0
-541 1272 0
-1271 1272 0
-541 -1271 0
-542 1273 0
-1272 1273 0
-542 -1272 0
-543 1274 0
-1273 1274 0
-543 -1273 0
-544 1275 0
-1274 1275 0
-544 -1274 0
-545 1276 0
-1275 1276 0
-545 -1275 0
-546 1277 0
-1276 1277 0
-546 -1276 0
-547 1278 0
-1277 1278 0
-547 -1277 0
-548 1279 0
-1278 1279 0
-548 -1278 0
-549 1280 0
-1279 1280 0
-549 -1279 0
-550 1281 0
-1280 1281 0
-550 -1280 0
-551 1282 0
-1281 1282 0
-551 -1281 0
-552 1283 0
-1282 1283 0
-552 -1282 0
-553 1284 0
-1283 1284 0
-553 -1283 0
-554 1285 0
-1284 1285 0
-554 -1284 0
-555 1286 0
-1285 1286 0
-555 -1285 0
-556 1287 0
-1286 1287 0
-556 -1286 0
-557 1288 0
-1287 1288 0
-557 -1287 0
-558 1289 0
-1288 1289 0
-558 -1288 0
-559 1290 0
-1289 1290 0
-559 -1289 0
-560 1291 0
-1290 1291 0
-560 -1290 0
-561 1292 0
-1291 1292 0
-561 -1291 0
-562 1293 0
-1292 1293 0
-562 -1292 0
-563 1294 0
-1293 1294 0
-563 -1293 0
-564 1295 0
-1294 1295 0
-564 -1294 0
-565 1296 0
-1295 1296 0
-565 -1295 0
-566 1297 0
-1296 1297 0
-566 -1296 0
-567 1298 0
-1297 1298 0
-567 -1297 0
-568 1299 0
-1298 1299 0
-568 -1298 0
-569 1300 0
-1299 1300 0
-569 -1299 0
-570 1301 0
-1300 1301 0
-570 -1300 0
-571 1302 0
-1301 1302 0
-571 -1301 0
-572 1303 0
-1302 1303 0
-572 -1302 0
-573 1304 0
-1303 1304 0
-573 -1303 0
-574 1305 0
-1304 1305 0
-574 -1304 0
-575 1306 0
-1305 1306 0
-575 -1305 0
-576 1307 0
-1306 1307 0
-576 -1306 0
-577 1308 0
-1307 1308 0
-577 -1307 0
-578 1309 0
-1308 1309 0
-578 -1308 0
-579 1310 0
-1309 1310 0
-579 -1309 0
-580 1311 0
-1310 1311 0
-580 -1310 0
-581 1312 0
-1311 1312 0
-581 -1311 0
-582 1313 0
-1312 1313 0
-582 -1312 0
-583 1314 0
-1313 1314 0
-583 -1313 0
-584 1315 0
-1314 1315 0
-584 -1314 0
-585 1316 0
-1315 1316 0
-585 -1315 0
-586 1317 0
-1316 1317 0
-586 -1316 0
-587 1318 0
-1317 1318 0
-587 -1317 0
-588 1319 0
-1318 1319 0
-588 -1318 0
-589 1320 0
-1319 1320 0
-589 -1319 0
-590 1321 0
-1320 1321 0
-590 -1320 0
-591 1322 0
-1321 1322 0
-591 -1321 0
-592 1323 0
-1322 1323 0
-592 -1322 0
-593 1324 0
-1323 1324 0
-593 -1323 0
-594 1325 0
-1324 1325 0
-594 -1324 0
-595 1326 0
-1325 1326 0
-595 -1325 0
-596 1327 0
-1326 1327 0
-596 -1326 0
-597 1328 0
-1327 1328 0
-597 -1327 0
-598 1329 0
-1328 1329 0
-598 -1328 0
-599 1330 0
-1329 1330 0
-599 -1329 0
-600 1331 0
-1330 1331 0
-600 -1330 0
-601 1332 0
-1331 1332 0
-601 -1331 0
-602 1333 0
-1332 1333 0
-602 -1332 0
-603 1334 0
-1333 1334 0
-603 -1333 0
-604 1335 0
-1334 1335 0
-604 -1334 0
-605 1336 0
-1335 1336 0
-605 -1335 0
-606 1337 0
-1336 1337 0
-606 -1336 0
-607 1338 0
-1337 1338 0
-607 -1337 0
-608 1339 0
-1338 1339 0
-608 -1338 0
-609 1340 0
-1339 1340 0
-609 -1339 0
-610 1341 0
-1340 1341 0
-610 -1340 0
-611 1342 0
-1341 1342 0
-611 -1341 0
-612 1343 0
-1342 1343 0
-612 -1342 0
-613 1344 0
-1343 1344 0
-613 -1343 0
-614 1345 0
-1344 1345 0
-614 -1344 0
-615 1346 0
-1345 1346 0
-615 -1345 0
-616 1347 0
-1346 1347 0
-616 -1346 0
-617 1348 0
-1347 1348 0
-617 -1347 0
-618 1349 0
-1348 1349 0
-618 -1348 0
-619 1350 0
-1349 1350 0
-619 -1349 0
-620 1351 0
-1350 1351 0
-620 -1350 0
-621 1352 0
-1351 1352 0
-621 -1351 0
-622 1353 0
-1352 1353 0
-622 -1352 0
-623 1354 0
-1353 1354 0
-623 -1353 0
-624 1355 0
-1354 1355 0
-624 -1354 0
-625 1356 0
-1355 1356 0
-625 -1355 0
-626 1357 0
-1356 1357 0
-626 -1356 0
-627 1358 0
-1357 1358 0
-627 -1357 0
-628 1359 0
-1358 1359 0
-628 -1358 0
-629 1360 0
-1359 1360 0
-629 -1359 0
-630 1361 0
-1360 1361 0
-630 -1360 0
-631 1362 0
-1361 1362 0
-631 -1361 0
-632 1363 0
-1362 1363 0
-632 -1362 0
-633 1364 0
-1363 1364 0
-633 -1363 0
-634 1365 0
-1364 1365 0
-634 -1364 0
-635 1366 0
-1365 1366 0
-635 -1365 0
-636 1367 0
-1366 1367 0
-636 -1366 0
-637 1368 0
-1367 1368 0
-637 -1367 0
-638 1369 0
-1368 1369 0
-638 -1368 0
-639 1370 0
-1369 1370 0
-639 -1369 0
-640 1371 0
-1370 1371 0
-640 -1370 0
-641 1372 0
-1371 1372 0
-641 -1371 0
-642 1373 0
-1372 1373 0
-642 -1372 0
-643 1374 0
-1373 1374 0
-643 -1373 0
-644 1375 0
-1374 1375 0
-644 -1374 0
-645 1376 0
-1375 1376 0
-645 -1375 0
-646 1377 0
-1376 1377 0
-646 -1376 0
-647 1378 0
-1377 1378 0
-647 -1377 0
-648 1379 0
-1378 1379 0
-648 -1378 0
-649 1380 0
-1379 1380 0
-649 -1379 0
-650 1381 0
-1380 1381 0
-650 -1380 0
-651 1382 0
-1381 1382 0
-651 -1381 0
-652 1383 0
-1382 1383 0
-652 -1382 0
-653 1384 0
-1383 1384 0
-653 -1383 0
-654 1385 0
-1384 1385 0
-654 -1384 0
-655 1386 0
-1385 1386 0
-655 -1385 0
-656 1387 0
-1386 1387 0
-656 -1386 0
-657 1388 0
-1387 1388 0
-657 -1387 0
-658 1389 0
-1388 1389 0
-658 -1388 0
-659 1390 0
-1389 1390 0
-659 -1389 0
-660 1391 0
-1390 1391 0
-660 -1390 0
-661 1392 0
-1391 1392 0
-661 -1391 0
-662 1393 0
-1392 1393 0
-662 -1392 0
-663 1394 0
-1393 1394 0
-663 -1393 0
-664 1395 0
-1394 1395 0
-664 -1394 0
-665 1396 0
-1395 1396 0
-665 -1395 0
-666 1397 0
-1396 1397 0
-666 -1396 0
-667 1398 0
-1397 1398 0
-667 -1397 0
-668 1399 0
-1398 1399 0
-668 -1398 0
-669 1400 0
-1399 1400 0
-669 -1399 0
-670 1401 0
-1400 1401 0
-670 -1400 0
-671 1402 0
-1401 1402 0
-671 -1401 0
-672 1403 0
-1402 1403 0
-672 -1402 0
-673 1404 0
-1403 1404 0
-673 -1403 0
-674 1405 0
-1404 1405 0
-674 -1404 0
-675 1406 0
-1405 1406 0
-675 -1405 0
-676 1407 0
-1406 1407 0
-676 -1406 0
-677 1408 0
-1407 1408 0
-677 -1407 0
-678 1409 0
-1408 1409 0
-678 -1408 0
-679 1410 0
-1409 1410 0
-679 -1409 0
-680 1411 0
-1410 1411 0
-680 -1410 0
-681 1412 0
-1411 1412 0
-681 -1411 0
-682 1413 0
-1412 1413 0
-682 -1412 0
-683 1414 0
-1413 1414 0
-683 -1413 0
-684 1415 0
-1414 1415 0
-684 -1414 0
-685 1416 0
-1415 1416 0
-685 -1415 0
-686 1417 0
-1416 1417 0
-686 -1416 0
-687 1418 0
-1417 1418 0
-687 -1417 0
-688 1419 0
-1418 1419 0
-688 -1418 0
-689 1420 0
-1419 1420 0
-689 -1419 0
-690 1421 0
-1420 1421 0
-690 -1420 0
-691 1422 0
-1421 1422 0
-691 -1421 0
-692 1423 0
-1422 1423 0
-692 -1422 0
-693 1424 0
-1423 1424 0
-693 -1423 0
-694 1425 0
-1424 1425 0
-694 -1424 0
-695 1426 0
-1425 1426 0
-695 -1425 0
-696 1427 0
-1426 1427 0
-696 -1426 0
-697 1428 0
-1427 1428 0
-697 -1427 0
-698 1429 0
-1428 1429 0
-698 -1428 0
-699 1430 0
-1429 1430 0
-699 -1429 0
-700 1431 0
-1430 1431 0
-700 -1430 0
-701 1432 0
-1431 1432 0
-701 -1431 0
-702 1433 0
-1432 1433 0
-702 -1432 0
-703 1434 0
-1433 1434 0
-703 -1433 0
-704 1435 0
-1434 1435 0
-704 -1434 0
-705 1436 0
-1435 1436 0
-705 -1435 0
-706 1437 0
-1436 1437 0
-706 -1436 0
-707 1438 0
-1437 1438 0
-707 -1437 0
-708 1439 0
-1438 1439 0
-708 -1438 0
-709 1440 0
-1439 1440 0
-709 -1439 0
-710 1441 0
-1440 1441 0
-710 -1440 0
-711 1442 0
-1441 1442 0
-711 -1441 0
-712 1443 0
-1442 1443 0
-712 -1442 0
-713 1444 0
-1443 1444 0
-713 -1443 0
-714 1445 0
-1444 1445 0
-714 -1444 0
-715 1446 0
-1445 1446 0
-715 -1445 0
-716 1447 0
-1446 1447 0
-716 -1446 0
-717 1448 0
-1447 1448 0
-717 -1447 0
-718 1449 0
-1448 1449 0
-718 -1448 0
-719 1450 0
-1449 1450 0
-719 -1449 0
-720 1451 0
-1450 1451 0
-720 -1450 0
-721 1452 0
-1451 1452 0
-721 -1451 0
-722 1453 0
-1452 1453 0
-722 -1452 0
-723 1454 0
-1453 1454 0
-723 -1453 0
-724 1455 0
-1454 1455 0
-724 -1454 0
-725 1456 0
-1455 1456 0
-725 -1455 0
-726 1457 0
-1456 1457 0
-726 -1456 0
-727 1458 0
-1457 1458 0
-727 -1457 0
-728 1459 0
-1458 1459 0
-728 -1458 0
-729 1460 0
-1459 1460 0
-729 -1459 0
-730 1461 0
-1460 1461 0
-730 -1460 0
-731 1462 0
-1461 1462 0
-731 -1461 0
-732 1463 0
-1462 1463 0
-732 -1462 0
-733 1464 0
-1463 1464 0
-733 -1463 0
-734 1465 0
-1464 1465 0
-734 -1464 0
-735 1466 0
-1465 1466 0
-735 -1465 0
-736 1467 0
-1466 1467 0
-736 -1466 0
-737 1468 0
-1467 1468 0
-737 -1467 0
-738 1469 0
-1468 1469 0
-738 -1468 0
-739 1470 0
-1469 1470 0
-739 -1469 0
-740 1471 0
-1470 1471 0
-740 -1470 0
-741 1472 0
-1471 1472 0
-741 -1471 0
-742 1473 0
-1472 1473 0
-742 -1472 0
-743 1474 0
-1473 1474 0
-743 -1473 0
-744 1475 0
-1474 1475 0
-744 -1474 0
-745 1476 0
-1475 1476 0
-745 -1475 0
-746 1477 0
-1476 1477 0
-746 -1476 0
-747 1478 0
-1477 1478 0
-747 -1477 0
-748 1479 0
-1478 1479 0
-748 -1478 0
-749 1480 0
-1479 1480 0
-749 -1479 0
-750 1481 0
-1480 1481 0
-750 -1480 0
-751 1482 0
-1481 1482 0
-751 -1481 0
-752 1483 0
-1482 1483 0
-752 -1482 0
-753 1484 0
-1483 1484 0
-753 -1483 0
-754 1485 0
-1484 1485 0
-754 -1484 0
-755 1486 0
-1485 1486 0
-755 -1485 0
-756 1487 0
-1486 1487 0
-756 -1486 0
-757 1488 0
-1487 1488 0
-757 -1487 0
-758 1489 0
-1488 1489 0
-758 -1488 0
-759 1490 0
-1489 1490 0
-759 -1489 0
-760 1491 0
-1490 1491 0
-760 -1490 0
-761 1492 0
-1491 1492 0
-761 -1491 0
-762 1493 0
-1492 1493 0
-762 -1492 0
-763 1494 0
-1493 1494 0
-763 -1493 0
-764 1495 0
-1494 1495 0
-764 -1494 0
-765 1496 0
-1495 1496 0
-765 -1495 0
-766 1497 0
-1496 1497 0
-766 -1496 0
-767 1498 0
-1497 1498 0
-767 -1497 0
-768 1499 0
-1498 1499 0
-768 -1498 0
-769 1500 0
-1499 1500 0
-769 -1499 0
-770 1501 0
-1500 1501 0
-770 -1500 0
-771 1502 0
-1501 1502 0
-771 -1501 0
-772 1503 0
-1502 1503 0
-772 -1502 0
-773 1504 0
-1503 1504 0
-773 -1503 0
-774 1505 0
-1504 1505 0
-774 -1504 0
-775 1506 0
-1505 1506 0
-775 -1505 0
-776 1507 0
-1506 1507 0
-776 -1506 0
-777 1508 0
-1507 1508 0
-777 -1507 0
-778 1509 0
-1508 1509 0
-778 -1508 0
-779 1510 0
-1509 1510 0
-779 -1509 0
-780 1511 0
-1510 1511 0
-780 -1510 0
-781 1512 0
-1511 1512 0
-781 -1511 0
-782 1513 0
-1512 1513 0
-782 -1512 0
-783 1514 0
-1513 1514 0
-783 -1513 0
-784 1515 0
-1514 1515 0
-784 -1514 0
-785 1516 0
-1515 1516 0
-785 -1515 0
-786 1517 0
-1516 1517 0
-786 -1516 0
-787 1518 0
-1517 1518 0
-787 -1517 0
-788 1519 0
-1518 1519 0
-788 -1518 0
-789 1520 0
-1519 1520 0
-789 -1519 0
-790 1521 0
-1520 1521 0
-790 -1520 0
-791 1522 0
-1521 1522 0
-791 -1521 0
-792 1523 0
-1522 1523 0
-792 -1522 0
-793 1524 0
-1523 1524 0
-793 -1523 0
-794 1525 0
-1524 1525 0
-794 -1524 0
-795 1526 0
-1525 1526 0
-795 -1525 0
-796 1527 0
-1526 1527 0
-796 -1526 0
-797 1528 0
-1527 1528 0
-797 -1527 0
-798 1529 0
-1528 1529 0
-798 -1528 0
-799 1530 0
-1529 1530 0
-799 -1529 0
-800 1531 0
-1530 1531 0
-800 -1530 0
-801 1532 0
-1531 1532 0
-801 -1531 0
-802 1533 0
-1532 1533 0
-802 -1532 0
-803 1534 0
-1533 1534 0
-803 -1533 0
-804 1535 0
-1534 1535 0
-804 -1534 0
-805 1536 0
-1535 1536 0
-805 -1535 0
-806 1537 0
-1536 1537 0
-806 -1536 0
-807 1538 0
-1537 1538 0
-807 -1537 0
-808 1539 0
-1538 1539 0
-808 -1538 0
-809 1540 0
-1539 1540 0
-809 -1539 0
-810 1541 0
-1540 1541 0
-810 -1540 0
-811 1542 0
-1541 1542 0
-811 -1541 0
-812 1543 0
-1542 1543 0
-812 -1542 0
-813 1544 0
-1543 1544 0
-813 -1543 0
-814 1545 0
-1544 1545 0
-814 -1544 0
-815 1546 0
-1545 1546 0
-815 -1545 0
-816 1547 0
-1546 1547 0
-816 -1546 0
-817 -1547 0
